%%%mzn-stat: initTime=0.076741636
%%%mzn-stat: objective=285
%%%mzn-stat: nodes=39318
%%%mzn-stat: restarts=12
%%%mzn-stat: peakDepth=467
%%%mzn-stat: solveTime=8.555666629
%%%mzn-stat: variables=1086
%%%mzn-stat: propagators=2019
%%%mzn-stat: failures=25703
%%%mzn-stat: propagations=6211615
%%%mzn-stat: nogoods=25703
%%%mzn-stat: AverageConflictSize=28.363926389915573
%%%mzn-stat: NumUnitNogoodsLearned=231
%%%mzn-stat: AverageLearnedNogoodLength=83.11916896860289
%%%mzn-stat: AverageBacktrackAmount=0
%%%mzn-stat: AverageLbd=15.265066334669104
%%%mzn-stat-end
maxleg = 285;
succ = array1d(1..50,[34, 50, 40, 29, 19, 27, 25, 45, 44, 4, 23, 39, 33, 5, 46, 3, 36, 15, 16, 49, 11, 32, 47, 18, 13, 31, 14, 12, 35, 8, 41, 6, 20, 24, 30, 48, 2, 37, 38, 42, 22, 21, 17, 7, 1, 43, 9, 26, 28, 10]);
% time elapsed: 12.29 s
----------
%%%mzn-stat: initTime=0.076741636
%%%mzn-stat: objective=283
%%%mzn-stat: nodes=40351
%%%mzn-stat: restarts=14
%%%mzn-stat: peakDepth=473
%%%mzn-stat: solveTime=8.623856825
%%%mzn-stat: variables=1086
%%%mzn-stat: propagators=2019
%%%mzn-stat: failures=25877
%%%mzn-stat: propagations=6267641
%%%mzn-stat: nogoods=25877
%%%mzn-stat: AverageConflictSize=28.24713065656761
%%%mzn-stat: NumUnitNogoodsLearned=231
%%%mzn-stat: AverageLearnedNogoodLength=82.83900761293813
%%%mzn-stat: AverageBacktrackAmount=0
%%%mzn-stat: AverageLbd=15.282915330216023
%%%mzn-stat-end
maxleg = 283;
succ = array1d(1..50,[34, 50, 40, 29, 16, 19, 25, 45, 44, 4, 23, 39, 33, 5, 46, 3, 36, 15, 27, 49, 11, 32, 47, 18, 13, 31, 14, 12, 35, 8, 41, 6, 20, 24, 30, 48, 2, 37, 38, 42, 22, 21, 17, 7, 1, 43, 9, 26, 28, 10]);
% time elapsed: 12.34 s
----------
%%%mzn-stat: initTime=0.076741636
%%%mzn-stat: objective=277
%%%mzn-stat: nodes=78041
%%%mzn-stat: restarts=32
%%%mzn-stat: peakDepth=473
%%%mzn-stat: solveTime=14.320793731
%%%mzn-stat: variables=1086
%%%mzn-stat: propagators=2019
%%%mzn-stat: failures=54104
%%%mzn-stat: propagations=10969698
%%%mzn-stat: nogoods=54104
%%%mzn-stat: AverageConflictSize=17.9597996451279
%%%mzn-stat: NumUnitNogoodsLearned=231
%%%mzn-stat: AverageLearnedNogoodLength=53.47148085169304
%%%mzn-stat: AverageBacktrackAmount=0
%%%mzn-stat: AverageLbd=13.526744787816058
%%%mzn-stat-end
maxleg = 277;
succ = array1d(1..50,[34, 50, 42, 29, 16, 19, 25, 35, 44, 4, 23, 39, 33, 5, 17, 3, 36, 15, 27, 49, 11, 32, 47, 18, 30, 31, 14, 12, 41, 26, 46, 13, 6, 45, 20, 48, 2, 37, 38, 21, 22, 40, 24, 7, 8, 43, 9, 1, 28, 10]);
% time elapsed: 18.05 s
----------
%%%mzn-stat: initTime=0.076741636
%%%mzn-stat: objective=275
%%%mzn-stat: nodes=79408
%%%mzn-stat: restarts=33
%%%mzn-stat: peakDepth=504
%%%mzn-stat: solveTime=14.482095849
%%%mzn-stat: variables=1086
%%%mzn-stat: propagators=2019
%%%mzn-stat: failures=54548
%%%mzn-stat: propagations=11084006
%%%mzn-stat: nogoods=54548
%%%mzn-stat: AverageConflictSize=17.985645669868738
%%%mzn-stat: NumUnitNogoodsLearned=231
%%%mzn-stat: AverageLearnedNogoodLength=53.48716726552761
%%%mzn-stat: AverageBacktrackAmount=0
%%%mzn-stat: AverageLbd=13.523648896384836
%%%mzn-stat-end
maxleg = 275;
succ = array1d(1..50,[34, 50, 42, 29, 16, 19, 25, 35, 44, 4, 23, 39, 33, 5, 8, 3, 36, 15, 27, 49, 11, 32, 47, 18, 30, 31, 14, 12, 41, 26, 46, 13, 6, 45, 20, 48, 2, 37, 38, 21, 22, 40, 17, 7, 24, 43, 9, 1, 28, 10]);
% time elapsed: 18.21 s
----------
%%%mzn-stat: initTime=0.076741636
%%%mzn-stat: objective=271
%%%mzn-stat: nodes=80213
%%%mzn-stat: restarts=34
%%%mzn-stat: peakDepth=504
%%%mzn-stat: solveTime=14.544359586
%%%mzn-stat: variables=1086
%%%mzn-stat: propagators=2019
%%%mzn-stat: failures=54713
%%%mzn-stat: propagations=11145387
%%%mzn-stat: nogoods=54713
%%%mzn-stat: AverageConflictSize=17.967539707199386
%%%mzn-stat: NumUnitNogoodsLearned=231
%%%mzn-stat: AverageLearnedNogoodLength=53.4817502238956
%%%mzn-stat: AverageBacktrackAmount=0
%%%mzn-stat: AverageLbd=13.52479301080182
%%%mzn-stat-end
maxleg = 271;
succ = array1d(1..50,[34, 50, 42, 29, 16, 19, 25, 48, 44, 4, 23, 39, 33, 5, 8, 3, 36, 35, 27, 49, 11, 32, 47, 18, 30, 31, 14, 12, 41, 26, 46, 13, 6, 45, 20, 15, 2, 37, 38, 21, 22, 40, 17, 7, 24, 43, 9, 1, 28, 10]);
% time elapsed: 18.27 s
----------
%%%mzn-stat: initTime=0.076741636
%%%mzn-stat: objective=270
%%%mzn-stat: nodes=81888
%%%mzn-stat: restarts=36
%%%mzn-stat: peakDepth=504
%%%mzn-stat: solveTime=14.782243516
%%%mzn-stat: variables=1086
%%%mzn-stat: propagators=2019
%%%mzn-stat: failures=55398
%%%mzn-stat: propagations=11356389
%%%mzn-stat: nogoods=55398
%%%mzn-stat: AverageConflictSize=17.977111087042854
%%%mzn-stat: NumUnitNogoodsLearned=231
%%%mzn-stat: AverageLearnedNogoodLength=53.49169645113542
%%%mzn-stat: AverageBacktrackAmount=0
%%%mzn-stat: AverageLbd=13.533882089606124
%%%mzn-stat-end
maxleg = 270;
succ = array1d(1..50,[34, 50, 42, 29, 6, 19, 25, 48, 44, 4, 23, 39, 33, 5, 8, 3, 36, 35, 16, 49, 11, 32, 47, 18, 30, 31, 14, 12, 41, 26, 46, 13, 27, 45, 20, 15, 2, 37, 38, 21, 22, 40, 17, 7, 24, 43, 9, 1, 28, 10]);
% time elapsed: 18.52 s
----------
%%%mzn-stat: initTime=0.076741636
%%%mzn-stat: objective=269
%%%mzn-stat: nodes=83474
%%%mzn-stat: restarts=37
%%%mzn-stat: peakDepth=504
%%%mzn-stat: solveTime=15.04439308
%%%mzn-stat: variables=1086
%%%mzn-stat: propagators=2019
%%%mzn-stat: failures=56133
%%%mzn-stat: propagations=11539467
%%%mzn-stat: nogoods=56133
%%%mzn-stat: AverageConflictSize=17.907113462669017
%%%mzn-stat: NumUnitNogoodsLearned=231
%%%mzn-stat: AverageLearnedNogoodLength=53.3280245132097
%%%mzn-stat: AverageBacktrackAmount=0
%%%mzn-stat: AverageLbd=13.515757219460923
%%%mzn-stat-end
maxleg = 269;
succ = array1d(1..50,[34, 50, 42, 29, 6, 19, 25, 48, 44, 4, 23, 39, 33, 5, 8, 3, 36, 35, 16, 49, 11, 32, 47, 18, 30, 31, 14, 12, 41, 26, 46, 13, 27, 45, 20, 15, 2, 37, 38, 21, 22, 40, 17, 7, 24, 43, 9, 1, 28, 10]);
% time elapsed: 18.78 s
----------
%%%mzn-stat: initTime=0.076741636
%%%mzn-stat: objective=268
%%%mzn-stat: nodes=84219
%%%mzn-stat: restarts=38
%%%mzn-stat: peakDepth=504
%%%mzn-stat: solveTime=15.118770533
%%%mzn-stat: variables=1086
%%%mzn-stat: propagators=2019
%%%mzn-stat: failures=56311
%%%mzn-stat: propagations=11578939
%%%mzn-stat: nogoods=56311
%%%mzn-stat: AverageConflictSize=17.899007298751577
%%%mzn-stat: NumUnitNogoodsLearned=231
%%%mzn-stat: AverageLearnedNogoodLength=53.33963168830246
%%%mzn-stat: AverageBacktrackAmount=0
%%%mzn-stat: AverageLbd=13.522526682175775
%%%mzn-stat-end
maxleg = 268;
succ = array1d(1..50,[34, 50, 42, 29, 6, 19, 25, 48, 44, 4, 23, 39, 33, 5, 8, 3, 36, 35, 16, 49, 11, 32, 47, 18, 30, 31, 14, 12, 41, 26, 46, 13, 27, 45, 20, 15, 2, 37, 38, 21, 22, 40, 17, 7, 24, 43, 9, 1, 28, 10]);
% time elapsed: 18.86 s
----------
%%%mzn-stat: initTime=0.076741636
%%%mzn-stat: objective=267
%%%mzn-stat: nodes=90461
%%%mzn-stat: restarts=39
%%%mzn-stat: peakDepth=504
%%%mzn-stat: solveTime=16.329870748
%%%mzn-stat: variables=1086
%%%mzn-stat: propagators=2019
%%%mzn-stat: failures=60143
%%%mzn-stat: propagations=12461063
%%%mzn-stat: nogoods=60143
%%%mzn-stat: AverageConflictSize=17.877026420364796
%%%mzn-stat: NumUnitNogoodsLearned=231
%%%mzn-stat: AverageLearnedNogoodLength=53.6129391616647
%%%mzn-stat: AverageBacktrackAmount=0
%%%mzn-stat: AverageLbd=13.267645445022696
%%%mzn-stat-end
maxleg = 267;
succ = array1d(1..50,[34, 50, 42, 29, 6, 19, 25, 48, 44, 4, 23, 39, 33, 5, 8, 3, 36, 35, 16, 49, 11, 32, 47, 18, 30, 31, 14, 12, 41, 26, 46, 13, 27, 45, 20, 15, 2, 37, 38, 21, 22, 40, 17, 7, 24, 43, 9, 1, 28, 10]);
% time elapsed: 20.07 s
----------
%%%mzn-stat: initTime=0.076741636
%%%mzn-stat: objective=266
%%%mzn-stat: nodes=91390
%%%mzn-stat: restarts=40
%%%mzn-stat: peakDepth=504
%%%mzn-stat: solveTime=16.409392345
%%%mzn-stat: variables=1086
%%%mzn-stat: propagators=2019
%%%mzn-stat: failures=60315
%%%mzn-stat: propagations=12510028
%%%mzn-stat: nogoods=60315
%%%mzn-stat: AverageConflictSize=17.910204758351984
%%%mzn-stat: NumUnitNogoodsLearned=231
%%%mzn-stat: AverageLearnedNogoodLength=53.66800961618171
%%%mzn-stat: AverageBacktrackAmount=0
%%%mzn-stat: AverageLbd=13.274674624886016
%%%mzn-stat-end
maxleg = 266;
succ = array1d(1..50,[34, 50, 42, 29, 6, 19, 25, 48, 44, 4, 23, 39, 33, 5, 8, 3, 36, 35, 16, 49, 11, 32, 47, 18, 30, 31, 14, 12, 41, 26, 46, 13, 27, 45, 20, 15, 2, 37, 38, 21, 22, 40, 17, 7, 24, 43, 9, 1, 28, 10]);
% time elapsed: 20.15 s
----------
=====ERROR=====
% time elapsed: 1527.39 s
